(assert (forall ((pkt_0_6_8_0  Int  )(pkt_1_7_9_0  Int  )(state_group_0_state_0_8_a_0  Int  )(state_group_1_state_0_9_b_0  Int  )(state_group_2_state_0_a_c_0  Int  )) (let ((_n0 pkt_0_6_8_0 ))
(let ((_n1 state_group_0_state_0_8_a_0 ))
(let ((_n2 (+   _n1   _n0 ) ))
(let ((_n3 (- 29) ))
(let ((_n4 pkt_1_7_9_0 ))
(let ((_n5 (-  _n4 )))
(let ((_n6 (=   _n5   _n3 ) ))
(let ((_n7 (not  _n6 ) ))
(let ((_n8 false ))
(let ((_n9 (ite (=  _n5  (- 29))  (ite  _n8  1 0)   _n0  ) ))
(let ((_n10 (+   _n1   _n9 ) ))
(let ((_n11 (ite (=  (ite  _n7  1 0)  1)  _n10   _n1  ) ))
(let ((_n12 (=   _n11   _n2 ) ))
(let ((_n14 30 ))
(let ((_n15 (<   _n4   _n14 ) ))
(let ((_n16 state_group_1_state_0_9_b_0 ))
(let ((_n17 (+   _n16   _n4 ) ))
(let ((_n18 (ite  _n15   _n17   _n16  ) ))
(let ((_n19 (<   _n3   _n5 ) ))
(let ((_n20 29 ))
(let ((_n21 (ite  _n19   _n20   (ite  _n8  1 0)  ) ))
(let ((_n22 (ite (=  (ite  _n19  1 0)  1)  _n21   (ite  _n8  1 0)  ) ))
(let ((_n23 (<   (ite  _n8  1 0)   _n22 ) ))
(let ((_n24 (+   _n20   _n5 ) ))
(let ((_n25 (-  _n24 )))
(let ((_n26 (+   _n20   _n25 ) ))
(let ((_n27 (ite  _n23   _n26   (ite  _n8  1 0)  ) ))
(let ((_n28 (+   _n16   _n27 ) ))
(let ((_n29 (ite (=  (ite  _n23  1 0)  1)  _n28   _n16  ) ))
(let ((_n30 (=   _n29   _n18 ) ))
(let ((_n32 state_group_2_state_0_a_c_0 ))
(let ((_n33 true ))
(let ((_n34 (+   _n32   (ite  _n33  1 0) ) ))
(let ((_n35 (ite  _n15   _n34   _n32  ) ))
(let ((_n36 28 ))
(let ((_n37 (<   _n32   _n36 ) ))
(let ((_n38 (+   _n32   (ite  _n37  1 0) ) ))
(let ((_n39 (ite (=  (ite  _n37  1 0)  1)  _n38   _n32  ) ))
(let ((_n40 (=   _n39   _n35 ) ))
(let ((_n42 (=   _n0   (ite  _n8  1 0) ) ))
(let ((_n43 (not  _n42 ) ))
(let ((_n44 (ite (=  _n0  0)  (ite  _n8  1 0)   _n0  ) ))
(let ((_n45 (ite (=  (ite  _n43  1 0)  1)  _n44   (ite  _n8  1 0)  ) ))
(let ((_n46 (ite (=  _n25  (- 29))  _n45   (ite  _n8  1 0)  ) ))
(let ((_n47 (ite (=  _n25  (- 29))  _n46   _n45  ) ))
(let ((_n48 (=   _n47   _n0 ) ))
(let ((_n50 (=   _n25   _n3 ) ))
(let ((_n51 (not  _n50 ) ))
(let ((_n52 (ite (=  _n25  (- 29))  (ite  _n8  1 0)   _n26  ) ))
(let ((_n53 (ite (=  (ite  _n51  1 0)  1)  _n52   (ite  _n8  1 0)  ) ))
(let ((_n54 (=   _n53   _n4 ) ))
(implies  (and (and (>= state_group_2_state_0_a_c_0 0) (< state_group_2_state_0_a_c_0 1024 ))  (and (and (>= state_group_1_state_0_9_b_0 0) (< state_group_1_state_0_9_b_0 1024 ))  (and (and (>= state_group_0_state_0_8_a_0 0) (< state_group_0_state_0_8_a_0 1024 ))  (and (and (>= pkt_1_7_9_0 0) (< pkt_1_7_9_0 1024 ))  (and (>= pkt_0_6_8_0 0) (< pkt_0_6_8_0 1024 )) ) ) ) )   (and  _n12  _n30  _n40  _n48  _n54 )  ))))))))))))))))))))))))))))))))))))))))))))))))))))))
(check-sat)
(get-model)
(exit)